Route #1: 5 86 67 152 42 54 18 27 101 36 105 80 144 87 124 63 103
Route #2: 108 102 100 40 31 24 133 70 141 11 39 120 112 59 95 75 160 4 131
Route #3: 159 17 96 14 85 156 125 115 97 148 116 153 151 38 55 92 30
Route #4: 134 119 140 46 15 52 48 9 93 69 83 22 73 25 157 7 6
Route #5: 89 137 106 166 94 90 33 74 41 78 165 26 35 123 62 162 68
Route #6: 161 91 104 12 57 77 13 1 122 111 88 163 145 129 107 64 49
Route #7: 149 136 114 8 147 20 117 43 66 138 126 127 61 58 56 155 47 118 128
Route #8: 21 109 16 2 29 28 32 10 37 84 146 51 72 53 82 158
Route #9: 3 130 143 71 142 19 50 135 150 98 45 81 164 34 65 110 76
Route #10: 44 121 79 113 60 132 154 139 23 99
Cost 23208
